p tw 144 26641 2 
1 74 
1 75 
1 78 
1 79 
1 82 
1 83 
1 85 
1 87 
1 89 
1 91 
1 93 
1 96 
1 97 
1 100 
1 101 
1 103 
1 105 
1 107 
1 109 
1 111 
1 114 
1 116 
1 117 
1 120 
1 122 
1 123 
1 125 
1 127 
1 130 
1 131 
1 133 
1 135 
1 137 
1 140 
1 141 
1 143 
2 73 
2 76 
2 77 
2 80 
2 81 
2 84 
2 86 
2 88 
2 90 
2 92 
2 94 
2 95 
2 98 
2 99 
2 102 
2 104 
2 106 
2 108 
2 110 
2 112 
2 113 
2 115 
2 118 
2 119 
2 121 
2 124 
2 126 
2 128 
2 129 
2 132 
2 134 
2 136 
2 138 
2 139 
2 142 
2 144 
3 4 
3 74 
3 76 
3 77 
3 80 
3 82 
3 83 
3 86 
3 88 
3 89 
3 92 
3 93 
3 95 
3 98 
3 100 
3 101 
3 103 
3 105 
3 107 
3 109 
3 112 
3 113 
3 116 
3 118 
3 119 
3 122 
3 123 
3 125 
3 127 
3 130 
3 132 
3 134 
3 135 
3 138 
3 139 
3 142 
3 144 
4 73 
4 75 
4 78 
4 79 
4 81 
4 84 
4 85 
4 87 
4 90 
4 91 
4 94 
4 96 
4 97 
4 99 
4 102 
4 104 
4 106 
4 108 
4 110 
4 111 
4 114 
4 115 
4 117 
4 120 
4 121 
4 124 
4 126 
4 128 
4 129 
4 131 
4 133 
4 136 
4 137 
4 140 
4 141 
4 143 
5 6 
5 74 
5 76 
5 77 
5 80 
5 82 
5 83 
5 85 
5 88 
5 89 
5 92 
5 94 
5 96 
5 97 
5 99 
5 102 
5 103 
5 105 
5 108 
5 110 
5 111 
5 113 
5 116 
5 118 
5 120 
5 121 
5 124 
5 125 
5 127 
5 129 
5 132 
5 134 
5 136 
5 137 
5 140 
5 141 
5 143 
6 73 
6 75 
6 78 
6 79 
6 81 
6 84 
6 86 
6 87 
6 90 
6 91 
6 93 
6 95 
6 98 
6 100 
6 101 
6 104 
6 106 
6 107 
6 109 
6 112 
6 114 
6 115 
6 117 
6 119 
6 122 
6 123 
6 126 
6 128 
6 130 
6 131 
6 133 
6 135 
6 138 
6 139 
6 142 
6 144 
7 8 
7 73 
7 75 
7 77 
7 80 
7 81 
7 84 
7 86 
7 87 
7 90 
7 92 
7 93 
7 96 
7 97 
7 99 
7 101 
7 104 
7 105 
7 108 
7 110 
7 112 
7 113 
7 116 
7 118 
7 120 
7 122 
7 123 
7 125 
7 127 
7 130 
7 131 
7 133 
7 136 
7 137 
7 140 
7 142 
7 144 
8 74 
8 76 
8 78 
8 79 
8 82 
8 83 
8 85 
8 88 
8 89 
8 91 
8 94 
8 95 
8 98 
8 100 
8 102 
8 103 
8 106 
8 107 
8 109 
8 111 
8 114 
8 115 
8 117 
8 119 
8 121 
8 124 
8 126 
8 128 
8 129 
8 132 
8 134 
8 135 
8 138 
8 139 
8 141 
8 143 
9 10 
9 73 
9 76 
9 78 
9 79 
9 82 
9 83 
9 86 
9 87 
9 90 
9 92 
9 93 
9 96 
9 97 
9 99 
9 101 
9 103 
9 106 
9 107 
9 110 
9 112 
9 114 
9 116 
9 118 
9 119 
9 121 
9 124 
9 126 
9 127 
9 130 
9 131 
9 134 
9 136 
9 138 
9 139 
9 141 
9 143 
10 74 
10 75 
10 77 
10 80 
10 81 
10 84 
10 85 
10 88 
10 89 
10 91 
10 94 
10 95 
10 98 
10 100 
10 102 
10 104 
10 105 
10 108 
10 109 
10 111 
10 113 
10 115 
10 117 
10 120 
10 122 
10 123 
10 125 
10 128 
10 129 
10 132 
10 133 
10 135 
10 137 
10 140 
10 142 
10 144 
11 12 
11 73 
11 75 
11 78 
11 79 
11 82 
11 83 
11 85 
11 88 
11 89 
11 92 
11 94 
11 95 
11 98 
11 99 
11 102 
11 103 
11 105 
11 107 
11 110 
11 112 
11 113 
11 116 
11 117 
11 120 
11 122 
11 124 
11 126 
11 128 
11 130 
11 131 
11 133 
11 136 
11 137 
11 139 
11 142 
11 144 
12 74 
12 76 
12 77 
12 80 
12 81 
12 84 
12 86 
12 87 
12 90 
12 91 
12 93 
12 96 
12 97 
12 100 
12 101 
12 104 
12 106 
12 108 
12 109 
12 111 
12 114 
12 115 
12 118 
12 119 
12 121 
12 123 
12 125 
12 127 
12 129 
12 132 
12 134 
12 135 
12 138 
12 140 
12 141 
12 143 
13 14 
13 73 
13 75 
13 78 
13 79 
13 81 
13 83 
13 85 
13 88 
13 90 
13 92 
13 94 
13 95 
13 98 
13 100 
13 101 
13 103 
13 106 
13 108 
13 110 
13 111 
13 114 
13 115 
13 118 
13 119 
13 122 
13 123 
13 125 
13 127 
13 130 
13 132 
13 134 
13 136 
13 137 
13 140 
13 142 
13 143 
14 74 
14 76 
14 77 
14 80 
14 82 
14 84 
14 86 
14 87 
14 89 
14 91 
14 93 
14 96 
14 97 
14 99 
14 102 
14 104 
14 105 
14 107 
14 109 
14 112 
14 113 
14 116 
14 117 
14 120 
14 121 
14 124 
14 126 
14 128 
14 129 
14 131 
14 133 
14 135 
14 138 
14 139 
14 141 
14 144 
15 16 
15 74 
15 75 
15 78 
15 80 
15 81 
15 83 
15 86 
15 88 
15 89 
15 91 
15 93 
15 96 
15 98 
15 99 
15 101 
15 104 
15 106 
15 107 
15 110 
15 111 
15 113 
15 116 
15 117 
15 119 
15 122 
15 124 
15 126 
15 127 
15 129 
15 132 
15 133 
15 136 
15 138 
15 140 
15 142 
15 143 
16 73 
16 76 
16 77 
16 79 
16 82 
16 84 
16 85 
16 87 
16 90 
16 92 
16 94 
16 95 
16 97 
16 100 
16 102 
16 103 
16 105 
16 108 
16 109 
16 112 
16 114 
16 115 
16 118 
16 120 
16 121 
16 123 
16 125 
16 128 
16 130 
16 131 
16 134 
16 135 
16 137 
16 139 
16 141 
16 144 
17 18 
17 74 
17 75 
17 78 
17 79 
17 81 
17 83 
17 85 
17 87 
17 89 
17 92 
17 93 
17 95 
17 97 
17 99 
17 102 
17 104 
17 106 
17 107 
17 110 
17 112 
17 114 
17 116 
17 118 
17 120 
17 121 
17 123 
17 125 
17 128 
17 129 
17 132 
17 134 
17 135 
17 138 
17 140 
17 142 
17 144 
18 73 
18 76 
18 77 
18 80 
18 82 
18 84 
18 86 
18 88 
18 90 
18 91 
18 94 
18 96 
18 98 
18 100 
18 101 
18 103 
18 105 
18 108 
18 109 
18 111 
18 113 
18 115 
18 117 
18 119 
18 122 
18 124 
18 126 
18 127 
18 130 
18 131 
18 133 
18 136 
18 137 
18 139 
18 141 
18 143 
19 20 
19 74 
19 75 
19 78 
19 80 
19 81 
19 83 
19 86 
19 88 
19 90 
19 91 
19 94 
19 96 
19 97 
19 99 
19 102 
19 103 
19 105 
19 108 
19 109 
19 112 
19 114 
19 116 
19 118 
19 119 
19 121 
19 123 
19 126 
19 128 
19 130 
19 132 
19 133 
19 135 
19 137 
19 139 
19 142 
19 143 
20 73 
20 76 
20 77 
20 79 
20 82 
20 84 
20 85 
20 87 
20 89 
20 92 
20 93 
20 95 
20 98 
20 100 
20 101 
20 104 
20 106 
20 107 
20 110 
20 111 
20 113 
20 115 
20 117 
20 120 
20 122 
20 124 
20 125 
20 127 
20 129 
20 131 
20 134 
20 136 
20 138 
20 140 
20 141 
20 144 
21 22 
21 74 
21 75 
21 77 
21 80 
21 82 
21 83 
21 85 
21 87 
21 90 
21 92 
21 93 
21 95 
21 98 
21 100 
21 101 
21 104 
21 105 
21 108 
21 109 
21 112 
21 114 
21 116 
21 117 
21 119 
21 121 
21 124 
21 126 
21 128 
21 129 
21 131 
21 134 
21 136 
21 137 
21 140 
21 142 
21 143 
22 73 
22 76 
22 78 
22 79 
22 81 
22 84 
22 86 
22 88 
22 89 
22 91 
22 94 
22 96 
22 97 
22 99 
22 102 
22 103 
22 106 
22 107 
22 110 
22 111 
22 113 
22 115 
22 118 
22 120 
22 122 
22 123 
22 125 
22 127 
22 130 
22 132 
22 133 
22 135 
22 138 
22 139 
22 141 
22 144 
23 24 
23 74 
23 76 
23 78 
23 79 
23 81 
23 83 
23 86 
23 87 
23 89 
23 92 
23 94 
23 96 
23 98 
23 99 
23 102 
23 104 
23 105 
23 108 
23 109 
23 112 
23 113 
23 115 
23 117 
23 119 
23 122 
23 123 
23 125 
23 128 
23 130 
23 131 
23 134 
23 136 
23 138 
23 140 
23 141 
23 143 
24 73 
24 75 
24 77 
24 80 
24 82 
24 84 
24 85 
24 88 
24 90 
24 91 
24 93 
24 95 
24 97 
24 100 
24 101 
24 103 
24 106 
24 107 
24 110 
24 111 
24 114 
24 116 
24 118 
24 120 
24 121 
24 124 
24 126 
24 127 
24 129 
24 132 
24 133 
24 135 
24 137 
24 139 
24 142 
24 144 
25 26 
25 73 
25 76 
25 78 
25 80 
25 81 
25 84 
25 86 
25 88 
25 89 
25 92 
25 93 
25 95 
25 98 
25 100 
25 102 
25 104 
25 105 
25 107 
25 110 
25 111 
25 114 
25 116 
25 118 
25 119 
25 121 
25 124 
25 125 
25 128 
25 130 
25 131 
25 133 
25 135 
25 137 
25 140 
25 141 
25 143 
26 74 
26 75 
26 77 
26 79 
26 82 
26 83 
26 85 
26 87 
26 90 
26 91 
26 94 
26 96 
26 97 
26 99 
26 101 
26 103 
26 106 
26 108 
26 109 
26 112 
26 113 
26 115 
26 117 
26 120 
26 122 
26 123 
26 126 
26 127 
26 129 
26 132 
26 134 
26 136 
26 138 
26 139 
26 142 
26 144 
27 28 
27 73 
27 75 
27 78 
27 80 
27 82 
27 84 
27 85 
27 88 
27 89 
27 91 
27 94 
27 95 
27 98 
27 99 
27 101 
27 104 
27 106 
27 108 
27 109 
27 112 
27 113 
27 116 
27 118 
27 120 
27 121 
27 123 
27 126 
27 127 
27 130 
27 131 
27 134 
27 135 
27 138 
27 140 
27 141 
27 143 
28 74 
28 76 
28 77 
28 79 
28 81 
28 83 
28 86 
28 87 
28 90 
28 92 
28 93 
28 96 
28 97 
28 100 
28 102 
28 103 
28 105 
28 107 
28 110 
28 111 
28 114 
28 115 
28 117 
28 119 
28 122 
28 124 
28 125 
28 128 
28 129 
28 132 
28 133 
28 136 
28 137 
28 139 
28 142 
28 144 
29 30 
29 74 
29 75 
29 78 
29 80 
29 82 
29 84 
29 86 
29 88 
29 89 
29 92 
29 93 
29 96 
29 97 
29 100 
29 102 
29 103 
29 106 
29 108 
29 109 
29 111 
29 114 
29 115 
29 118 
29 120 
29 122 
29 124 
29 126 
29 128 
29 130 
29 131 
29 134 
29 136 
29 138 
29 140 
29 142 
29 144 
30 73 
30 76 
30 77 
30 79 
30 81 
30 83 
30 85 
30 87 
30 90 
30 91 
30 94 
30 95 
30 98 
30 99 
30 101 
30 104 
30 105 
30 107 
30 110 
30 112 
30 113 
30 116 
30 117 
30 119 
30 121 
30 123 
30 125 
30 127 
30 129 
30 132 
30 133 
30 135 
30 137 
30 139 
30 141 
30 143 
31 32 
31 73 
31 76 
31 78 
31 80 
31 81 
31 83 
31 85 
31 88 
31 90 
31 91 
31 93 
31 95 
31 97 
31 99 
31 101 
31 104 
31 105 
31 108 
31 109 
31 111 
31 114 
31 116 
31 117 
31 120 
31 122 
31 124 
31 125 
31 128 
31 130 
31 132 
31 134 
31 136 
31 138 
31 139 
31 141 
31 144 
32 74 
32 75 
32 77 
32 79 
32 82 
32 84 
32 86 
32 87 
32 89 
32 92 
32 94 
32 96 
32 98 
32 100 
32 102 
32 103 
32 106 
32 107 
32 110 
32 112 
32 113 
32 115 
32 118 
32 119 
32 121 
32 123 
32 126 
32 127 
32 129 
32 131 
32 133 
32 135 
32 137 
32 140 
32 142 
32 143 
33 34 
33 74 
33 76 
33 78 
33 80 
33 82 
33 83 
33 86 
33 87 
33 90 
33 92 
33 93 
33 95 
33 98 
33 99 
33 101 
33 103 
33 106 
33 108 
33 110 
33 111 
33 113 
33 115 
33 117 
33 120 
33 121 
33 123 
33 126 
33 128 
33 130 
33 132 
33 133 
33 135 
33 137 
33 140 
33 141 
33 144 
34 73 
34 75 
34 77 
34 79 
34 81 
34 84 
34 85 
34 88 
34 89 
34 91 
34 94 
34 96 
34 97 
34 100 
34 102 
34 104 
34 105 
34 107 
34 109 
34 112 
34 114 
34 116 
34 118 
34 119 
34 122 
34 124 
34 125 
34 127 
34 129 
34 131 
34 134 
34 136 
34 138 
34 139 
34 142 
34 143 
35 36 
35 74 
35 75 
35 77 
35 80 
35 82 
35 83 
35 86 
35 88 
35 90 
35 91 
35 94 
35 95 
35 97 
35 99 
35 102 
35 104 
35 106 
35 107 
35 110 
35 112 
35 114 
35 115 
35 117 
35 119 
35 122 
35 124 
35 125 
35 127 
35 130 
35 131 
35 134 
35 135 
35 137 
35 140 
35 141 
35 144 
36 73 
36 76 
36 78 
36 79 
36 81 
36 84 
36 85 
36 87 
36 89 
36 92 
36 93 
36 96 
36 98 
36 100 
36 101 
36 103 
36 105 
36 108 
36 109 
36 111 
36 113 
36 116 
36 118 
36 120 
36 121 
36 123 
36 126 
36 128 
36 129 
36 132 
36 133 
36 136 
36 138 
36 139 
36 142 
36 143 
37 38 
37 73 
37 76 
37 78 
37 79 
37 81 
37 83 
37 86 
37 88 
37 90 
37 91 
37 93 
37 96 
37 98 
37 100 
37 102 
37 103 
37 106 
37 108 
37 109 
37 112 
37 113 
37 116 
37 117 
37 120 
37 121 
37 124 
37 125 
37 127 
37 129 
37 131 
37 134 
37 135 
37 137 
37 140 
37 142 
37 144 
38 74 
38 75 
38 77 
38 80 
38 82 
38 84 
38 85 
38 87 
38 89 
38 92 
38 94 
38 95 
38 97 
38 99 
38 101 
38 104 
38 105 
38 107 
38 110 
38 111 
38 114 
38 115 
38 118 
38 119 
38 122 
38 123 
38 126 
38 128 
38 130 
38 132 
38 133 
38 136 
38 138 
38 139 
38 141 
38 143 
39 40 
39 73 
39 76 
39 77 
39 80 
39 81 
39 83 
39 85 
39 88 
39 89 
39 92 
39 94 
39 96 
39 97 
39 100 
39 101 
39 103 
39 106 
39 108 
39 110 
39 112 
39 114 
39 116 
39 117 
39 119 
39 122 
39 123 
39 126 
39 128 
39 129 
39 131 
39 133 
39 135 
39 138 
39 140 
39 141 
39 144 
40 74 
40 75 
40 78 
40 79 
40 82 
40 84 
40 86 
40 87 
40 90 
40 91 
40 93 
40 95 
40 98 
40 99 
40 102 
40 104 
40 105 
40 107 
40 109 
40 111 
40 113 
40 115 
40 118 
40 120 
40 121 
40 124 
40 125 
40 127 
40 130 
40 132 
40 134 
40 136 
40 137 
40 139 
40 142 
40 143 
41 42 
41 73 
41 75 
41 77 
41 79 
41 82 
41 84 
41 86 
41 87 
41 89 
41 91 
41 94 
41 96 
41 98 
41 99 
41 101 
41 103 
41 105 
41 108 
41 110 
41 111 
41 114 
41 116 
41 117 
41 119 
41 121 
41 124 
41 125 
41 128 
41 130 
41 132 
41 134 
41 135 
41 138 
41 140 
41 142 
41 144 
42 74 
42 76 
42 78 
42 80 
42 81 
42 83 
42 85 
42 88 
42 90 
42 92 
42 93 
42 95 
42 97 
42 100 
42 102 
42 104 
42 106 
42 107 
42 109 
42 112 
42 113 
42 115 
42 118 
42 120 
42 122 
42 123 
42 126 
42 127 
42 129 
42 131 
42 133 
42 136 
42 137 
42 139 
42 141 
42 143 
43 44 
43 74 
43 75 
43 77 
43 79 
43 82 
43 83 
43 85 
43 88 
43 90 
43 91 
43 93 
43 96 
43 98 
43 100 
43 102 
43 104 
43 106 
43 108 
43 110 
43 111 
43 113 
43 116 
43 118 
43 119 
43 121 
43 123 
43 125 
43 128 
43 130 
43 131 
43 133 
43 136 
43 138 
43 139 
43 141 
43 144 
44 73 
44 76 
44 78 
44 80 
44 81 
44 84 
44 86 
44 87 
44 89 
44 92 
44 94 
44 95 
44 97 
44 99 
44 101 
44 103 
44 105 
44 107 
44 109 
44 112 
44 114 
44 115 
44 117 
44 120 
44 122 
44 124 
44 126 
44 127 
44 129 
44 132 
44 134 
44 135 
44 137 
44 140 
44 142 
44 143 
45 46 
45 73 
45 76 
45 77 
45 79 
45 82 
45 84 
45 85 
45 88 
45 90 
45 92 
45 93 
45 96 
45 97 
45 99 
45 102 
45 104 
45 106 
45 107 
45 109 
45 111 
45 113 
45 116 
45 117 
45 119 
45 122 
45 123 
45 126 
45 128 
45 130 
45 132 
45 134 
45 135 
45 137 
45 140 
45 142 
45 143 
46 74 
46 75 
46 78 
46 80 
46 81 
46 83 
46 86 
46 87 
46 89 
46 91 
46 94 
46 95 
46 98 
46 100 
46 101 
46 103 
46 105 
46 108 
46 110 
46 112 
46 114 
46 115 
46 118 
46 120 
46 121 
46 124 
46 125 
46 127 
46 129 
46 131 
46 133 
46 136 
46 138 
46 139 
46 141 
46 144 
47 48 
47 74 
47 76 
47 78 
47 80 
47 82 
47 84 
47 85 
47 87 
47 90 
47 92 
47 94 
47 96 
47 98 
47 100 
47 102 
47 104 
47 106 
47 108 
47 110 
47 112 
47 114 
47 116 
47 117 
47 120 
47 122 
47 124 
47 125 
47 127 
47 130 
47 132 
47 133 
47 135 
47 138 
47 139 
47 142 
47 143 
48 73 
48 75 
48 77 
48 79 
48 81 
48 83 
48 86 
48 88 
48 89 
48 91 
48 93 
48 95 
48 97 
48 99 
48 101 
48 103 
48 105 
48 107 
48 109 
48 111 
48 113 
48 115 
48 118 
48 119 
48 121 
48 123 
48 126 
48 128 
48 129 
48 131 
48 134 
48 136 
48 137 
48 140 
48 141 
48 144 
49 50 
49 73 
49 76 
49 78 
49 80 
49 82 
49 83 
49 85 
49 87 
49 89 
49 91 
49 94 
49 96 
49 97 
49 100 
49 101 
49 104 
49 106 
49 107 
49 109 
49 112 
49 113 
49 115 
49 118 
49 119 
49 121 
49 124 
49 125 
49 128 
49 130 
49 132 
49 133 
49 136 
49 137 
49 140 
49 142 
49 144 
50 74 
50 75 
50 77 
50 79 
50 81 
50 84 
50 86 
50 88 
50 90 
50 92 
50 93 
50 95 
50 98 
50 99 
50 102 
50 103 
50 105 
50 108 
50 110 
50 111 
50 114 
50 116 
50 117 
50 120 
50 122 
50 123 
50 126 
50 127 
50 129 
50 131 
50 134 
50 135 
50 138 
50 139 
50 141 
50 143 
51 52 
51 73 
51 76 
51 77 
51 80 
51 82 
51 83 
51 86 
51 87 
51 90 
51 91 
51 94 
51 95 
51 98 
51 99 
51 102 
51 103 
51 106 
51 107 
51 109 
51 111 
51 114 
51 116 
51 118 
51 120 
51 122 
51 123 
51 125 
51 128 
51 129 
51 131 
51 133 
51 136 
51 138 
51 140 
51 142 
51 143 
52 74 
52 75 
52 78 
52 79 
52 81 
52 84 
52 85 
52 88 
52 89 
52 92 
52 93 
52 96 
52 97 
52 100 
52 101 
52 104 
52 105 
52 108 
52 110 
52 112 
52 113 
52 115 
52 117 
52 119 
52 121 
52 124 
52 126 
52 127 
52 130 
52 132 
52 134 
52 135 
52 137 
52 139 
52 141 
52 144 
53 54 
53 74 
53 76 
53 77 
53 79 
53 81 
53 84 
53 85 
53 87 
53 89 
53 91 
53 93 
53 95 
53 98 
53 99 
53 102 
53 103 
53 106 
53 108 
53 109 
53 112 
53 114 
53 116 
53 118 
53 119 
53 122 
53 124 
53 126 
53 127 
53 130 
53 132 
53 133 
53 136 
53 137 
53 140 
53 141 
53 144 
54 73 
54 75 
54 78 
54 80 
54 82 
54 83 
54 86 
54 88 
54 90 
54 92 
54 94 
54 96 
54 97 
54 100 
54 101 
54 104 
54 105 
54 107 
54 110 
54 111 
54 113 
54 115 
54 117 
54 120 
54 121 
54 123 
54 125 
54 128 
54 129 
54 131 
54 134 
54 135 
54 138 
54 139 
54 142 
54 143 
55 56 
55 74 
55 76 
55 78 
55 79 
55 82 
55 84 
55 86 
55 88 
55 90 
55 91 
55 94 
55 96 
55 98 
55 100 
55 101 
55 104 
55 105 
55 107 
55 110 
55 112 
55 114 
55 116 
55 118 
55 120 
55 122 
55 123 
55 126 
55 128 
55 129 
55 132 
55 134 
55 136 
55 137 
55 140 
55 141 
55 144 
56 73 
56 75 
56 77 
56 80 
56 81 
56 83 
56 85 
56 87 
56 89 
56 92 
56 93 
56 95 
56 97 
56 99 
56 102 
56 103 
56 106 
56 108 
56 109 
56 111 
56 113 
56 115 
56 117 
56 119 
56 121 
56 124 
56 125 
56 127 
56 130 
56 131 
56 133 
56 135 
56 138 
56 139 
56 142 
56 143 
57 58 
57 73 
57 75 
57 78 
57 79 
57 82 
57 83 
57 86 
57 87 
57 90 
57 92 
57 94 
57 95 
57 97 
57 100 
57 102 
57 104 
57 105 
57 108 
57 109 
57 111 
57 113 
57 116 
57 118 
57 119 
57 122 
57 124 
57 126 
57 127 
57 129 
57 132 
57 133 
57 135 
57 138 
57 140 
57 141 
57 144 
58 74 
58 76 
58 77 
58 80 
58 81 
58 84 
58 85 
58 88 
58 89 
58 91 
58 93 
58 96 
58 98 
58 99 
58 101 
58 103 
58 106 
58 107 
58 110 
58 112 
58 114 
58 115 
58 117 
58 120 
58 121 
58 123 
58 125 
58 128 
58 130 
58 131 
58 134 
58 136 
58 137 
58 139 
58 142 
58 143 
59 60 
59 74 
59 76 
59 77 
59 79 
59 81 
59 83 
59 86 
59 87 
59 89 
59 91 
59 94 
59 95 
59 97 
59 100 
59 101 
59 104 
59 106 
59 108 
59 110 
59 111 
59 113 
59 116 
59 118 
59 120 
59 122 
59 124 
59 126 
59 128 
59 130 
59 131 
59 134 
59 135 
59 137 
59 139 
59 142 
59 143 
60 73 
60 75 
60 78 
60 80 
60 82 
60 84 
60 85 
60 88 
60 90 
60 92 
60 93 
60 96 
60 98 
60 99 
60 102 
60 103 
60 105 
60 107 
60 109 
60 112 
60 114 
60 115 
60 117 
60 119 
60 121 
60 123 
60 125 
60 127 
60 129 
60 132 
60 133 
60 136 
60 138 
60 140 
60 141 
60 144 
61 62 
61 73 
61 76 
61 77 
61 79 
61 82 
61 83 
61 86 
61 88 
61 89 
61 91 
61 93 
61 95 
61 97 
61 100 
61 102 
61 104 
61 105 
61 108 
61 110 
61 112 
61 114 
61 115 
61 117 
61 120 
61 121 
61 123 
61 126 
61 127 
61 130 
61 132 
61 133 
61 136 
61 138 
61 140 
61 142 
61 143 
62 74 
62 75 
62 78 
62 80 
62 81 
62 84 
62 85 
62 87 
62 90 
62 92 
62 94 
62 96 
62 98 
62 99 
62 101 
62 103 
62 106 
62 107 
62 109 
62 111 
62 113 
62 116 
62 118 
62 119 
62 122 
62 124 
62 125 
62 128 
62 129 
62 131 
62 134 
62 135 
62 137 
62 139 
62 141 
62 144 
63 64 
63 73 
63 75 
63 77 
63 80 
63 81 
63 83 
63 86 
63 87 
63 89 
63 92 
63 94 
63 96 
63 98 
63 100 
63 102 
63 104 
63 106 
63 107 
63 109 
63 111 
63 114 
63 116 
63 117 
63 120 
63 121 
63 123 
63 126 
63 127 
63 130 
63 132 
63 134 
63 136 
63 137 
63 139 
63 141 
63 144 
64 74 
64 76 
64 78 
64 79 
64 82 
64 84 
64 85 
64 88 
64 90 
64 91 
64 93 
64 95 
64 97 
64 99 
64 101 
64 103 
64 105 
64 108 
64 110 
64 112 
64 113 
64 115 
64 118 
64 119 
64 122 
64 124 
64 125 
64 128 
64 129 
64 131 
64 133 
64 135 
64 138 
64 140 
64 142 
64 143 
65 66 
65 73 
65 75 
65 77 
65 80 
65 81 
65 83 
65 85 
65 87 
65 90 
65 91 
65 93 
65 96 
65 98 
65 100 
65 102 
65 103 
65 105 
65 107 
65 110 
65 112 
65 113 
65 115 
65 118 
65 120 
65 122 
65 124 
65 126 
65 128 
65 130 
65 132 
65 134 
65 135 
65 138 
65 140 
65 141 
65 143 
66 74 
66 76 
66 78 
66 79 
66 82 
66 84 
66 86 
66 88 
66 89 
66 92 
66 94 
66 95 
66 97 
66 99 
66 101 
66 104 
66 106 
66 108 
66 109 
66 111 
66 114 
66 116 
66 117 
66 119 
66 121 
66 123 
66 125 
66 127 
66 129 
66 131 
66 133 
66 136 
66 137 
66 139 
66 142 
66 144 
67 68 
67 74 
67 75 
67 77 
67 79 
67 81 
67 84 
67 86 
67 88 
67 90 
67 92 
67 94 
67 95 
67 97 
67 100 
67 101 
67 103 
67 106 
67 107 
67 109 
67 112 
67 113 
67 116 
67 117 
67 120 
67 121 
67 124 
67 125 
67 128 
67 130 
67 132 
67 133 
67 136 
67 138 
67 140 
67 141 
67 143 
68 73 
68 76 
68 78 
68 80 
68 82 
68 83 
68 85 
68 87 
68 89 
68 91 
68 93 
68 96 
68 98 
68 99 
68 102 
68 104 
68 105 
68 108 
68 110 
68 111 
68 114 
68 115 
68 118 
68 119 
68 122 
68 123 
68 126 
68 127 
68 129 
68 131 
68 134 
68 135 
68 137 
68 139 
68 142 
68 144 
69 70 
69 74 
69 76 
69 78 
69 80 
69 81 
69 84 
69 85 
69 87 
69 90 
69 91 
69 94 
69 95 
69 97 
69 100 
69 102 
69 103 
69 105 
69 107 
69 110 
69 111 
69 113 
69 116 
69 117 
69 119 
69 121 
69 123 
69 126 
69 127 
69 130 
69 131 
69 134 
69 136 
69 138 
69 140 
69 142 
69 144 
70 73 
70 75 
70 77 
70 79 
70 82 
70 83 
70 86 
70 88 
70 89 
70 92 
70 93 
70 96 
70 98 
70 99 
70 101 
70 104 
70 106 
70 108 
70 109 
70 112 
70 114 
70 115 
70 118 
70 120 
70 122 
70 124 
70 125 
70 128 
70 129 
70 132 
70 133 
70 135 
70 137 
70 139 
70 141 
70 143 
71 72 
71 74 
71 76 
71 77 
71 79 
71 81 
71 83 
71 85 
71 88 
71 90 
71 92 
71 94 
71 96 
71 98 
71 99 
71 101 
71 104 
71 105 
71 107 
71 109 
71 111 
71 114 
71 115 
71 118 
71 120 
71 121 
71 124 
71 126 
71 127 
71 130 
71 131 
71 133 
71 135 
71 138 
71 140 
71 142 
71 144 
72 73 
72 75 
72 78 
72 80 
72 82 
72 84 
72 86 
72 87 
72 89 
72 91 
72 93 
72 95 
72 97 
72 100 
72 102 
72 103 
72 106 
72 108 
72 110 
72 112 
72 113 
72 116 
72 117 
72 119 
72 122 
72 123 
72 125 
72 128 
72 129 
72 132 
72 134 
72 136 
72 137 
72 139 
72 141 
72 143 
73 74 
75 76 
77 78 
79 80 
81 82 
83 84 
85 86 
87 88 
89 90 
91 92 
93 94 
95 96 
97 98 
99 100 
101 102 
103 104 
105 106 
107 108 
109 110 
111 112 
113 114 
115 116 
117 118 
119 120 
121 122 
123 124 
125 126 
127 128 
129 130 
131 132 
133 134 
135 136 
137 138 
139 140 
141 142 
143 144 
